
Gurobi 9.1.2 (linux64) logging started Thu Mar 31 06:16:40 2022

Changed value of parameter LogFile to india_v-25.log
   Prev:   Default: 
Changed value of parameter MIPFocus to 1
   Prev: 0  Min: 0  Max: 3  Default: 0
Changed value of parameter TimeLimit to 600.0
   Prev: inf  Min: 0.0  Max: inf  Default: inf
Warning: variables 0 and 230 have the same name "X[24,0]"
Warning: linear constraint 216 and linear constraint 217 have the same name "weight-constr-t5"
Warning: to let Gurobi read it back, use rlp format
Gurobi Optimizer version 9.1.2 build v9.1.2rc0 (linux64)
Thread count: 32 physical cores, 64 logical processors, using up to 32 threads
Optimize a model with 1570 rows, 1380 columns and 4944 nonzeros
Model fingerprint: 0x7351b1c1
Variable types: 210 continuous, 1170 integer (1170 binary)
Coefficient statistics:
  Matrix range     [1e+00, 1e+06]
  Objective range  [2e-01, 2e-01]
  Bounds range     [1e+00, 5e+05]
  RHS range        [1e+00, 1e+06]
Presolve removed 150 rows and 174 columns
Presolve time: 0.03s
Presolved: 1420 rows, 1206 columns, 7932 nonzeros
Variable types: 204 continuous, 1002 integer (1002 binary)

Root relaxation: objective 3.400000e+01, 138 iterations, 0.00 seconds

    Nodes    |    Current Node    |     Objective Bounds      |     Work
 Expl Unexpl |  Obj  Depth IntInf | Incumbent    BestBd   Gap | It/Node Time

     0     0   34.00000    0   11          -   34.00000      -     -    0s
     0     0   34.00000    0   15          -   34.00000      -     -    0s
     0     0   34.00000    0   10          -   34.00000      -     -    0s
     0     0   34.00000    0   12          -   34.00000      -     -    0s
     0     0   34.00000    0   10          -   34.00000      -     -    0s
     0     0   34.00000    0   10          -   34.00000      -     -    0s
H    0     0                    3320551.5000   34.00000   100%     -    0s
     0     0   34.00000    0   11 3320551.50   34.00000   100%     -    0s
H    0     0                     124.5833333   34.00000  72.7%     -    0s
H    0     0                      91.6666667   34.00000  62.9%     -    0s
H    0     0                      89.5000000   34.00000  62.0%     -    0s
H    0     2                      86.3333333   34.00000  60.6%     -    0s
     0     2   34.00000    0    5   86.33333   34.00000  60.6%     -    0s
H    2     4                      81.1666667   34.00000  58.1%   7.5    0s
H    4     8                      80.5000000   34.00000  57.8%   9.0    0s
H    7    16                      80.3333333   34.00000  57.7%   8.6    0s
H   10    16                      79.6666667   34.00000  57.3%   7.0    0s
H   13    16                      79.6666667   34.00000  57.3%   6.8    0s
H   31    64                      79.3333333   34.00000  57.1%   7.0    1s
H   36    64                      79.0000000   34.00000  57.0%   7.2    1s
H   37    64                      78.6666667   34.00000  56.8%   7.1    1s
H   63    96                      77.8333333   34.00000  56.3%   7.3    2s
H   64    96                      76.8333333   34.00000  55.7%   7.2    2s
H   66    96                      75.5000000   34.00000  55.0%   7.0    2s
H   83    96                      74.1666667   34.00000  54.2%   6.2    2s
H   88    96                      73.1666667   34.00000  53.5%   6.2    2s
H   95   128                      71.5000000   34.00000  52.4%   6.0    3s
H   97   128                      71.1666667   34.00000  52.2%   6.2    3s
H   98   128                      69.5000000   34.00000  51.1%   6.1    3s
H  106   128                      69.1666667   34.00000  50.8%   6.0    3s
H  159   190                      68.5000000   34.00000  50.4%   5.2    4s
H  167   190                      68.0000000   34.00000  50.0%   5.1    4s
H  178   190                      67.8333333   34.00000  49.9%   5.0    4s
H  181   190                      67.6666667   34.00000  49.8%   5.0    4s
H  182   190                      66.5000000   34.00000  48.9%   5.0    4s
*  214   244              11      34.0000000   34.00000  0.00%   4.8    4s

Cutting planes:
  Cover: 6
  Implied bound: 3
  MIR: 1
  Flow cover: 4
  Relax-and-lift: 3

Explored 255 nodes (7082 simplex iterations) in 4.87 seconds
Thread count was 32 (of 64 available processors)

Solution count 10: 34 66.5 67.6667 ... 71.5

Optimal solution found (tolerance 1.00e-04)
Best objective 3.400000000000e+01, best bound 3.400000000000e+01, gap 0.0000%
